benchmark/results/graph__15-1000-0.10-03_11/graph__15-1000-0.10-03_11_QuintonOs_Benders_primal_sub.lp
\ This file has been generated by DOcplex
\ ENCODING=ISO-8859-1
\Problem name: Quinton Bounded Benders_primal_sub

Maximize
 obj: tau
Subject To
 c1: tau <= 0.001102535832
 c2: y_a0_proc_0 + y_a0_proc_2 - tau = 0
 c3: y_a0_proc_0 <= 1
 c4: y_a0_proc_2 <= 0
 c5: tau <= 0.001126126126
 c6: y_a1_proc_0 + y_a1_proc_2 - tau = 0
 c7: y_a1_proc_0 <= 0
 c8: y_a1_proc_2 <= 1
 c9: tau <= 0.000811688312
 c10: y_a2_proc_1 + y_a2_proc_2 - tau = 0
 c11: y_a2_proc_1 <= 1
 c12: y_a2_proc_2 <= 0
 c13: tau <= 0.001934235977
 c14: y_a3_proc_0 + y_a3_proc_1 - tau = 0
 c15: y_a3_proc_0 <= 1
 c16: y_a3_proc_1 <= 0
 c17: tau <= 0.002469135802
 c18: y_a4_proc_0 + y_a4_proc_1 + y_a4_proc_2 - tau = 0
 c19: y_a4_proc_0 <= 0
 c20: y_a4_proc_1 <= 0
 c21: y_a4_proc_2 <= 1
 c22: tau <= 0.001090512541
 c23: y_a5_proc_0 - tau = 0
 c24: y_a5_proc_0 <= 1
 c25: tau <= 0.001751313485
 c26: y_a6_proc_0 + y_a6_proc_1 + y_a6_proc_2 - tau = 0
 c27: y_a6_proc_0 <= 0
 c28: y_a6_proc_1 <= 1
 c29: y_a6_proc_2 <= 0
 c30: tau <= 0.001035196687
 c31: y_a7_proc_0 + y_a7_proc_1 + y_a7_proc_2 - tau = 0
 c32: y_a7_proc_0 <= 0
 c33: y_a7_proc_1 <= 1
 c34: y_a7_proc_2 <= 0
 c35: tau <= 0.001234567901
 c36: y_a8_proc_0 + y_a8_proc_1 + y_a8_proc_2 - tau = 0
 c37: y_a8_proc_0 <= 1
 c38: y_a8_proc_1 <= 0
 c39: y_a8_proc_2 <= 0
 c40: tau <= 0.001355013550
 c41: y_a9_proc_0 + y_a9_proc_1 + y_a9_proc_2 - tau = 0
 c42: y_a9_proc_0 <= 1
 c43: y_a9_proc_1 <= 0
 c44: y_a9_proc_2 <= 0
 c45: tau <= 0.000994035785
 c46: y_a10_proc_0 + y_a10_proc_1 + y_a10_proc_2 - tau = 0
 c47: y_a10_proc_0 <= 0
 c48: y_a10_proc_1 <= 0
 c49: y_a10_proc_2 <= 1
 c50: tau <= 0.001373626374
 c51: y_a11_proc_0 + y_a11_proc_1 + y_a11_proc_2 - tau = 0
 c52: y_a11_proc_0 <= 1
 c53: y_a11_proc_1 <= 0
 c54: y_a11_proc_2 <= 0
 c55: tau <= 0.000852514919
 c56: y_a12_proc_1 - tau = 0
 c57: y_a12_proc_1 <= 1
 c58: tau <= 0.000836820084
 c59: y_a13_proc_0 + y_a13_proc_1 + y_a13_proc_2 - tau = 0
 c60: y_a13_proc_0 <= 0
 c61: y_a13_proc_1 <= 1
 c62: y_a13_proc_2 <= 0
 c63: tau <= 0.001015228426
 c64: y_a14_proc_0 + y_a14_proc_1 + y_a14_proc_2 - tau = 0
 c65: y_a14_proc_0 <= 0
 c66: y_a14_proc_1 <= 0
 c67: y_a14_proc_2 <= 1
 c68: u_a1 - u_a0 - 907 y_a0_proc_0 - 809 y_a0_proc_2 >= -1
 c69: u_a0 - u_a2 - 1232 y_a2_proc_1 - 842 y_a2_proc_2 >= 0
 c70: u_a3 - u_a2 - 1232 y_a2_proc_1 - 842 y_a2_proc_2 >= 0
 c71: u_a4 - u_a1 - 785 y_a1_proc_0 - 888 y_a1_proc_2 >= -1
 c72: u_a4 - u_a5 - 917 y_a5_proc_0 >= -1
 c73: u_a6 - u_a3 - 517 y_a3_proc_0 - 1148 y_a3_proc_1 >= -1
 c74: u_a7 - u_a6 - 1160 y_a6_proc_0 - 571 y_a6_proc_1 - 710 y_a6_proc_2 >= 0
 c75: u_a8 - u_a5 - 917 y_a5_proc_0 >= -1
 c76: u_a4 - u_a9 - 738 y_a9_proc_0 - 1122 y_a9_proc_1 - 921 y_a9_proc_2 >= -1
 c77: u_a7 - u_a10 - 1254 y_a10_proc_0 - 1142 y_a10_proc_1 - 1006 y_a10_proc_2
       >= 0
 c78: u_a11 - u_a4 - 1072 y_a4_proc_0 - 1008 y_a4_proc_1 - 405 y_a4_proc_2 >= 
      -1
 c79: u_a12 - u_a8 - 810 y_a8_proc_0 - 718 y_a8_proc_1 - 712 y_a8_proc_2 >= -1
 c80: u_a13 - u_a7 - 664 y_a7_proc_0 - 966 y_a7_proc_1 - 917 y_a7_proc_2 >= -1
 c81: u_a14 - u_a11 - 728 y_a11_proc_0 - 1010 y_a11_proc_1 - 915 y_a11_proc_2
       >= 0
 c82: - 664 y_a7_proc_0 - 966 y_a7_proc_1 - 917 y_a7_proc_2 >= -1
 c83: u_a13 - u_a6 - 1160 y_a6_proc_0 - 571 y_a6_proc_1 - 710 y_a6_proc_2 >= -1
 c84: u_a1 - u_a10 - 1254 y_a10_proc_0 - 1142 y_a10_proc_1 - 1006 y_a10_proc_2
       >= 0
 c85: u_a0 - u_a8 - 810 y_a8_proc_0 - 718 y_a8_proc_1 - 712 y_a8_proc_2 >= 0
 c86: u_a9 - u_a8 - 810 y_a8_proc_0 - 718 y_a8_proc_1 - 712 y_a8_proc_2 >= 0
 c87: u_a12 - u_a14 - 1174 y_a14_proc_0 - 1028 y_a14_proc_1 - 985 y_a14_proc_2
       >= 0
 c88: u_a13 - u_a4 - 1072 y_a4_proc_0 - 1008 y_a4_proc_1 - 405 y_a4_proc_2 >= 
      -1
 c89: u_a5 - u_a3 - 517 y_a3_proc_0 - 1148 y_a3_proc_1 >= 0
 c90: u_a9 - u_a6 - 1160 y_a6_proc_0 - 571 y_a6_proc_1 - 710 y_a6_proc_2 >= 0
 c91: u_a10 - u_a12 - 1173 y_a12_proc_1 >= 0
 c92: u_a2 - u_a4 - 1072 y_a4_proc_0 - 1008 y_a4_proc_1 - 405 y_a4_proc_2 >= 0
 c93: u_a11 - u_a13 - 1262 y_a13_proc_0 - 1195 y_a13_proc_1 - 967 y_a13_proc_2
       >= 0
 c94: u_a6 - u_a13 - 1262 y_a13_proc_0 - 1195 y_a13_proc_1 - 967 y_a13_proc_2
       >= 0
 c95: u_a1 - u_a0 - 809 y_a0_proc_2 >= -1245
 c96: u_a1 - u_a0 - 907 y_a0_proc_0 >= -1245
 c97: u_a0 - u_a1 - 888 y_a1_proc_2 >= -1280
 c98: u_a0 - u_a1 - 785 y_a1_proc_0 >= -1280
 c99: u_a2 - u_a0 - 809 y_a0_proc_2 >= -2542
 c100: u_a0 - u_a2 - 842 y_a2_proc_2 >= -2507
 c101: u_a3 - u_a0 - 907 y_a0_proc_0 >= -1
 c102: u_a0 - u_a3 - 517 y_a3_proc_0 >= 0
 c103: u_a4 - u_a0 - 809 y_a0_proc_2 >= -1280
 c104: u_a4 - u_a0 - 907 y_a0_proc_0 >= -1280
 c105: u_a0 - u_a4 - 405 y_a4_proc_2 >= -1245
 c106: u_a0 - u_a4 - 1072 y_a4_proc_0 >= -1245
 c107: u_a5 - u_a0 - 907 y_a0_proc_0 >= 0
 c108: u_a0 - u_a5 - 917 y_a5_proc_0 >= -1
 c109: u_a6 - u_a0 - 809 y_a0_proc_2 >= -2507
 c110: u_a6 - u_a0 - 907 y_a0_proc_0 >= -1245
 c111: u_a0 - u_a6 - 710 y_a6_proc_2 >= -2542
 c112: u_a0 - u_a6 - 1160 y_a6_proc_0 >= -1280
 c113: u_a7 - u_a0 - 809 y_a0_proc_2 >= -2542
 c114: u_a7 - u_a0 - 907 y_a0_proc_0 >= -1280
 c115: u_a0 - u_a7 - 917 y_a7_proc_2 >= -2507
 c116: u_a0 - u_a7 - 664 y_a7_proc_0 >= -1245
 c117: u_a8 - u_a0 - 809 y_a0_proc_2 >= -2525
 c118: u_a8 - u_a0 - 907 y_a0_proc_0 >= -1
 c119: u_a0 - u_a8 - 712 y_a8_proc_2 >= -2524
 c120: u_a0 - u_a8 - 810 y_a8_proc_0 >= 0
 c121: u_a9 - u_a0 - 809 y_a0_proc_2 >= -2525
 c122: u_a9 - u_a0 - 907 y_a0_proc_0 >= -1
 c123: u_a0 - u_a9 - 921 y_a9_proc_2 >= -2524
 c124: u_a0 - u_a9 - 738 y_a9_proc_0 >= 0
 c125: u_a10 - u_a0 - 809 y_a0_proc_2 >= -1280
 c126: u_a10 - u_a0 - 907 y_a0_proc_0 >= -1280
 c127: u_a0 - u_a10 - 1006 y_a10_proc_2 >= -1245
 c128: u_a0 - u_a10 - 1254 y_a10_proc_0 >= -1245
 c129: u_a11 - u_a0 - 809 y_a0_proc_2 >= -2525
 c130: u_a11 - u_a0 - 907 y_a0_proc_0 >= -1
 c131: u_a0 - u_a11 - 915 y_a11_proc_2 >= -2524
 c132: u_a0 - u_a11 - 728 y_a11_proc_0 >= 0
 c133: u_a13 - u_a0 - 809 y_a0_proc_2 >= -2507
 c134: u_a13 - u_a0 - 907 y_a0_proc_0 >= -1245
 c135: u_a0 - u_a13 - 967 y_a13_proc_2 >= -2542
 c136: u_a0 - u_a13 - 1262 y_a13_proc_0 >= -1280
 c137: u_a14 - u_a0 - 809 y_a0_proc_2 >= -1245
 c138: u_a14 - u_a0 - 907 y_a0_proc_0 >= -1245
 c139: u_a0 - u_a14 - 985 y_a14_proc_2 >= -1280
 c140: u_a0 - u_a14 - 1174 y_a14_proc_0 >= -1280
 c141: u_a2 - u_a1 - 888 y_a1_proc_2 >= -1245
 c142: u_a1 - u_a2 - 842 y_a2_proc_2 >= -1280
 c143: u_a3 - u_a1 - 785 y_a1_proc_0 >= -1245
 c144: u_a1 - u_a3 - 517 y_a3_proc_0 >= -1280
 c145: u_a4 - u_a1 - 888 y_a1_proc_2 >= -1
 c146: u_a4 - u_a1 - 785 y_a1_proc_0 >= -2525
 c147: u_a1 - u_a4 - 405 y_a4_proc_2 >= 0
 c148: u_a1 - u_a4 - 1072 y_a4_proc_0 >= -2524
 c149: u_a5 - u_a1 - 785 y_a1_proc_0 >= -1280
 c150: u_a1 - u_a5 - 917 y_a5_proc_0 >= -1245
 c151: u_a6 - u_a1 - 888 y_a1_proc_2 >= -1245
 c152: u_a6 - u_a1 - 785 y_a1_proc_0 >= -2507
 c153: u_a1 - u_a6 - 710 y_a6_proc_2 >= -1280
 c154: u_a1 - u_a6 - 1160 y_a6_proc_0 >= -2542
 c155: u_a7 - u_a1 - 888 y_a1_proc_2 >= -1245
 c156: u_a7 - u_a1 - 785 y_a1_proc_0 >= -2507
 c157: u_a1 - u_a7 - 917 y_a7_proc_2 >= -1280
 c158: u_a1 - u_a7 - 664 y_a7_proc_0 >= -2542
 c159: u_a8 - u_a1 - 888 y_a1_proc_2 >= -1280
 c160: u_a8 - u_a1 - 785 y_a1_proc_0 >= -1280
 c161: u_a1 - u_a8 - 712 y_a8_proc_2 >= -1245
 c162: u_a1 - u_a8 - 810 y_a8_proc_0 >= -1245
 c163: u_a9 - u_a1 - 888 y_a1_proc_2 >= -1280
 c164: u_a9 - u_a1 - 785 y_a1_proc_0 >= -1280
 c165: u_a1 - u_a9 - 921 y_a9_proc_2 >= -1245
 c166: u_a1 - u_a9 - 738 y_a9_proc_0 >= -1245
 c167: u_a10 - u_a1 - 888 y_a1_proc_2 >= -1
 c168: u_a10 - u_a1 - 785 y_a1_proc_0 >= -2525
 c169: u_a1 - u_a10 - 1006 y_a10_proc_2 >= 0
 c170: u_a1 - u_a10 - 1254 y_a10_proc_0 >= -2524
 c171: u_a11 - u_a1 - 888 y_a1_proc_2 >= -1280
 c172: u_a11 - u_a1 - 785 y_a1_proc_0 >= -1280
 c173: u_a1 - u_a11 - 915 y_a11_proc_2 >= -1245
 c174: u_a1 - u_a11 - 728 y_a11_proc_0 >= -1245
 c175: u_a13 - u_a1 - 888 y_a1_proc_2 >= -1245
 c176: u_a13 - u_a1 - 785 y_a1_proc_0 >= -2507
 c177: u_a1 - u_a13 - 967 y_a13_proc_2 >= -1280
 c178: u_a1 - u_a13 - 1262 y_a13_proc_0 >= -2542
 c179: u_a14 - u_a1 - 888 y_a1_proc_2 >= -1
 c180: u_a14 - u_a1 - 785 y_a1_proc_0 >= -2525
 c181: u_a1 - u_a14 - 985 y_a14_proc_2 >= 0
 c182: u_a1 - u_a14 - 1174 y_a14_proc_0 >= -2524
 c183: u_a3 - u_a2 - 1232 y_a2_proc_1 >= -1280
 c184: u_a2 - u_a3 - 1148 y_a3_proc_1 >= -1245
 c185: u_a4 - u_a2 - 842 y_a2_proc_2 >= -1280
 c186: u_a4 - u_a2 - 1232 y_a2_proc_1 >= -1280
 c187: u_a2 - u_a4 - 405 y_a4_proc_2 >= -1245
 c188: u_a2 - u_a4 - 1008 y_a4_proc_1 >= -1245
 c189: u_a6 - u_a2 - 842 y_a2_proc_2 >= -2524
 c190: u_a6 - u_a2 - 1232 y_a2_proc_1 >= 0
 c191: u_a2 - u_a6 - 710 y_a6_proc_2 >= -2525
 c192: u_a2 - u_a6 - 571 y_a6_proc_1 >= -1
 c193: u_a7 - u_a2 - 842 y_a2_proc_2 >= -2524
 c194: u_a7 - u_a2 - 1232 y_a2_proc_1 >= 0
 c195: u_a2 - u_a7 - 917 y_a7_proc_2 >= -2525
 c196: u_a2 - u_a7 - 966 y_a7_proc_1 >= -1
 c197: u_a8 - u_a2 - 842 y_a2_proc_2 >= -2542
 c198: u_a8 - u_a2 - 1232 y_a2_proc_1 >= -1280
 c199: u_a2 - u_a8 - 712 y_a8_proc_2 >= -2507
 c200: u_a2 - u_a8 - 718 y_a8_proc_1 >= -1245
 c201: u_a9 - u_a2 - 842 y_a2_proc_2 >= -2542
 c202: u_a9 - u_a2 - 1232 y_a2_proc_1 >= -1280
 c203: u_a2 - u_a9 - 921 y_a9_proc_2 >= -2507
 c204: u_a2 - u_a9 - 1122 y_a9_proc_1 >= -1245
 c205: u_a10 - u_a2 - 842 y_a2_proc_2 >= -1280
 c206: u_a10 - u_a2 - 1232 y_a2_proc_1 >= -1280
 c207: u_a2 - u_a10 - 1006 y_a10_proc_2 >= -1245
 c208: u_a2 - u_a10 - 1142 y_a10_proc_1 >= -1245
 c209: u_a11 - u_a2 - 842 y_a2_proc_2 >= -2542
 c210: u_a11 - u_a2 - 1232 y_a2_proc_1 >= -1280
 c211: u_a2 - u_a11 - 915 y_a11_proc_2 >= -2507
 c212: u_a2 - u_a11 - 1010 y_a11_proc_1 >= -1245
 c213: u_a12 - u_a2 - 1232 y_a2_proc_1 >= 0
 c214: u_a2 - u_a12 - 1173 y_a12_proc_1 >= -1
 c215: u_a13 - u_a2 - 842 y_a2_proc_2 >= -2525
 c216: u_a13 - u_a2 - 1232 y_a2_proc_1 >= -1
 c217: u_a2 - u_a13 - 967 y_a13_proc_2 >= -2524
 c218: u_a2 - u_a13 - 1195 y_a13_proc_1 >= 0
 c219: u_a14 - u_a2 - 842 y_a2_proc_2 >= -1280
 c220: u_a14 - u_a2 - 1232 y_a2_proc_1 >= -1280
 c221: u_a2 - u_a14 - 985 y_a14_proc_2 >= -1245
 c222: u_a2 - u_a14 - 1028 y_a14_proc_1 >= -1245
 c223: u_a4 - u_a3 - 517 y_a3_proc_0 >= -1280
 c224: u_a4 - u_a3 - 1148 y_a3_proc_1 >= -2542
 c225: u_a3 - u_a4 - 1072 y_a4_proc_0 >= -1245
 c226: u_a3 - u_a4 - 1008 y_a4_proc_1 >= -2507
 c227: u_a5 - u_a3 - 517 y_a3_proc_0 >= 0
 c228: u_a3 - u_a5 - 917 y_a5_proc_0 >= -1
 c229: u_a6 - u_a3 - 517 y_a3_proc_0 >= -1245
 c230: u_a6 - u_a3 - 1148 y_a3_proc_1 >= -1245
 c231: u_a3 - u_a6 - 1160 y_a6_proc_0 >= -1280
 c232: u_a3 - u_a6 - 571 y_a6_proc_1 >= -1280
 c233: u_a7 - u_a3 - 517 y_a3_proc_0 >= -1280
 c234: u_a7 - u_a3 - 1148 y_a3_proc_1 >= -1280
 c235: u_a3 - u_a7 - 664 y_a7_proc_0 >= -1245
 c236: u_a3 - u_a7 - 966 y_a7_proc_1 >= -1245
 c237: u_a8 - u_a3 - 517 y_a3_proc_0 >= 0
 c238: u_a8 - u_a3 - 1148 y_a3_proc_1 >= -2524
 c239: u_a3 - u_a8 - 810 y_a8_proc_0 >= -1
 c240: u_a3 - u_a8 - 718 y_a8_proc_1 >= -2525
 c241: u_a9 - u_a3 - 517 y_a3_proc_0 >= 0
 c242: u_a9 - u_a3 - 1148 y_a3_proc_1 >= -2524
 c243: u_a3 - u_a9 - 738 y_a9_proc_0 >= -1
 c244: u_a3 - u_a9 - 1122 y_a9_proc_1 >= -2525
 c245: u_a10 - u_a3 - 517 y_a3_proc_0 >= -1280
 c246: u_a10 - u_a3 - 1148 y_a3_proc_1 >= -2542
 c247: u_a3 - u_a10 - 1254 y_a10_proc_0 >= -1245
 c248: u_a3 - u_a10 - 1142 y_a10_proc_1 >= -2507
 c249: u_a11 - u_a3 - 517 y_a3_proc_0 >= -1
 c250: u_a11 - u_a3 - 1148 y_a3_proc_1 >= -2525
 c251: u_a3 - u_a11 - 728 y_a11_proc_0 >= 0
 c252: u_a3 - u_a11 - 1010 y_a11_proc_1 >= -2524
 c253: u_a12 - u_a3 - 1148 y_a3_proc_1 >= -1245
 c254: u_a3 - u_a12 - 1173 y_a12_proc_1 >= -1280
 c255: u_a13 - u_a3 - 517 y_a3_proc_0 >= -1280
 c256: u_a13 - u_a3 - 1148 y_a3_proc_1 >= -1280
 c257: u_a3 - u_a13 - 1262 y_a13_proc_0 >= -1245
 c258: u_a3 - u_a13 - 1195 y_a13_proc_1 >= -1245
 c259: u_a14 - u_a3 - 517 y_a3_proc_0 >= -1245
 c260: u_a14 - u_a3 - 1148 y_a3_proc_1 >= -2507
 c261: u_a3 - u_a14 - 1174 y_a14_proc_0 >= -1280
 c262: u_a3 - u_a14 - 1028 y_a14_proc_1 >= -2542
 c263: u_a5 - u_a4 - 1072 y_a4_proc_0 >= -1280
 c264: u_a4 - u_a5 - 917 y_a5_proc_0 >= -1245
 c265: u_a6 - u_a4 - 405 y_a4_proc_2 >= -1245
 c266: u_a6 - u_a4 - 1072 y_a4_proc_0 >= -2507
 c267: u_a6 - u_a4 - 1008 y_a4_proc_1 >= -1245
 c268: u_a4 - u_a6 - 710 y_a6_proc_2 >= -1280
 c269: u_a4 - u_a6 - 1160 y_a6_proc_0 >= -2542
 c270: u_a4 - u_a6 - 571 y_a6_proc_1 >= -1280
 c271: u_a7 - u_a4 - 405 y_a4_proc_2 >= -1245
 c272: u_a7 - u_a4 - 1072 y_a4_proc_0 >= -2507
 c273: u_a7 - u_a4 - 1008 y_a4_proc_1 >= -1245
 c274: u_a4 - u_a7 - 917 y_a7_proc_2 >= -1280
 c275: u_a4 - u_a7 - 664 y_a7_proc_0 >= -2542
 c276: u_a4 - u_a7 - 966 y_a7_proc_1 >= -1280
 c277: u_a8 - u_a4 - 405 y_a4_proc_2 >= -1280
 c278: u_a8 - u_a4 - 1072 y_a4_proc_0 >= -1280
 c279: u_a8 - u_a4 - 1008 y_a4_proc_1 >= -2542
 c280: u_a4 - u_a8 - 712 y_a8_proc_2 >= -1245
 c281: u_a4 - u_a8 - 810 y_a8_proc_0 >= -1245
 c282: u_a4 - u_a8 - 718 y_a8_proc_1 >= -2507
 c283: u_a9 - u_a4 - 405 y_a4_proc_2 >= -1280
 c284: u_a9 - u_a4 - 1072 y_a4_proc_0 >= -1280
 c285: u_a9 - u_a4 - 1008 y_a4_proc_1 >= -2542
 c286: u_a4 - u_a9 - 921 y_a9_proc_2 >= -1245
 c287: u_a4 - u_a9 - 738 y_a9_proc_0 >= -1245
 c288: u_a4 - u_a9 - 1122 y_a9_proc_1 >= -2507
 c289: u_a10 - u_a4 - 405 y_a4_proc_2 >= 0
 c290: u_a10 - u_a4 - 1072 y_a4_proc_0 >= -2524
 c291: u_a10 - u_a4 - 1008 y_a4_proc_1 >= -2524
 c292: u_a4 - u_a10 - 1006 y_a10_proc_2 >= -1
 c293: u_a4 - u_a10 - 1254 y_a10_proc_0 >= -2525
 c294: u_a4 - u_a10 - 1142 y_a10_proc_1 >= -2525
 c295: u_a11 - u_a4 - 405 y_a4_proc_2 >= -1245
 c296: u_a11 - u_a4 - 1072 y_a4_proc_0 >= -1245
 c297: u_a11 - u_a4 - 1008 y_a4_proc_1 >= -2507
 c298: u_a4 - u_a11 - 915 y_a11_proc_2 >= -1280
 c299: u_a4 - u_a11 - 728 y_a11_proc_0 >= -1280
 c300: u_a4 - u_a11 - 1010 y_a11_proc_1 >= -2542
 c301: u_a12 - u_a4 - 1008 y_a4_proc_1 >= -1280
 c302: u_a4 - u_a12 - 1173 y_a12_proc_1 >= -1245
 c303: u_a13 - u_a4 - 405 y_a4_proc_2 >= -1280
 c304: u_a13 - u_a4 - 1072 y_a4_proc_0 >= -2542
 c305: u_a13 - u_a4 - 1008 y_a4_proc_1 >= -1280
 c306: u_a4 - u_a13 - 967 y_a13_proc_2 >= -1245
 c307: u_a4 - u_a13 - 1262 y_a13_proc_0 >= -2507
 c308: u_a4 - u_a13 - 1195 y_a13_proc_1 >= -1245
 c309: u_a14 - u_a4 - 405 y_a4_proc_2 >= 0
 c310: u_a14 - u_a4 - 1072 y_a4_proc_0 >= -2524
 c311: u_a14 - u_a4 - 1008 y_a4_proc_1 >= -2524
 c312: u_a4 - u_a14 - 985 y_a14_proc_2 >= -1
 c313: u_a4 - u_a14 - 1174 y_a14_proc_0 >= -2525
 c314: u_a4 - u_a14 - 1028 y_a14_proc_1 >= -2525
 c315: u_a6 - u_a5 - 917 y_a5_proc_0 >= -1245
 c316: u_a5 - u_a6 - 1160 y_a6_proc_0 >= -1280
 c317: u_a7 - u_a5 - 917 y_a5_proc_0 >= -1280
 c318: u_a5 - u_a7 - 664 y_a7_proc_0 >= -1245
 c319: u_a8 - u_a5 - 917 y_a5_proc_0 >= -1
 c320: u_a5 - u_a8 - 810 y_a8_proc_0 >= 0
 c321: u_a9 - u_a5 - 917 y_a5_proc_0 >= -1
 c322: u_a5 - u_a9 - 738 y_a9_proc_0 >= 0
 c323: u_a10 - u_a5 - 917 y_a5_proc_0 >= -1245
 c324: u_a5 - u_a10 - 1254 y_a10_proc_0 >= -1280
 c325: u_a11 - u_a5 - 917 y_a5_proc_0 >= -1
 c326: u_a5 - u_a11 - 728 y_a11_proc_0 >= 0
 c327: u_a13 - u_a5 - 917 y_a5_proc_0 >= -1245
 c328: u_a5 - u_a13 - 1262 y_a13_proc_0 >= -1280
 c329: u_a14 - u_a5 - 917 y_a5_proc_0 >= -1280
 c330: u_a5 - u_a14 - 1174 y_a14_proc_0 >= -1245
 c331: u_a7 - u_a6 - 710 y_a6_proc_2 >= -2524
 c332: u_a7 - u_a6 - 1160 y_a6_proc_0 >= -2524
 c333: u_a7 - u_a6 - 571 y_a6_proc_1 >= 0
 c334: u_a6 - u_a7 - 917 y_a7_proc_2 >= -2525
 c335: u_a6 - u_a7 - 664 y_a7_proc_0 >= -2525
 c336: u_a6 - u_a7 - 966 y_a7_proc_1 >= -1
 c337: u_a8 - u_a6 - 710 y_a6_proc_2 >= -2507
 c338: u_a8 - u_a6 - 1160 y_a6_proc_0 >= -1245
 c339: u_a8 - u_a6 - 571 y_a6_proc_1 >= -1245
 c340: u_a6 - u_a8 - 712 y_a8_proc_2 >= -2542
 c341: u_a6 - u_a8 - 810 y_a8_proc_0 >= -1280
 c342: u_a6 - u_a8 - 718 y_a8_proc_1 >= -1280
 c343: u_a9 - u_a6 - 710 y_a6_proc_2 >= -2507
 c344: u_a9 - u_a6 - 1160 y_a6_proc_0 >= -1245
 c345: u_a9 - u_a6 - 571 y_a6_proc_1 >= -1245
 c346: u_a6 - u_a9 - 921 y_a9_proc_2 >= -2542
 c347: u_a6 - u_a9 - 738 y_a9_proc_0 >= -1280
 c348: u_a6 - u_a9 - 1122 y_a9_proc_1 >= -1280
 c349: u_a10 - u_a6 - 710 y_a6_proc_2 >= -1245
 c350: u_a10 - u_a6 - 1160 y_a6_proc_0 >= -2507
 c351: u_a10 - u_a6 - 571 y_a6_proc_1 >= -1245
 c352: u_a6 - u_a10 - 1006 y_a10_proc_2 >= -1280
 c353: u_a6 - u_a10 - 1254 y_a10_proc_0 >= -2542
 c354: u_a6 - u_a10 - 1142 y_a10_proc_1 >= -1280
 c355: u_a11 - u_a6 - 710 y_a6_proc_2 >= -2542
 c356: u_a11 - u_a6 - 1160 y_a6_proc_0 >= -1280
 c357: u_a11 - u_a6 - 571 y_a6_proc_1 >= -1280
 c358: u_a6 - u_a11 - 915 y_a11_proc_2 >= -2507
 c359: u_a6 - u_a11 - 728 y_a11_proc_0 >= -1245
 c360: u_a6 - u_a11 - 1010 y_a11_proc_1 >= -1245
 c361: u_a12 - u_a6 - 571 y_a6_proc_1 >= -1
 c362: u_a6 - u_a12 - 1173 y_a12_proc_1 >= 0
 c363: u_a13 - u_a6 - 710 y_a6_proc_2 >= -2525
 c364: u_a13 - u_a6 - 1160 y_a6_proc_0 >= -2525
 c365: u_a13 - u_a6 - 571 y_a6_proc_1 >= -1
 c366: u_a6 - u_a13 - 967 y_a13_proc_2 >= -2524
 c367: u_a6 - u_a13 - 1262 y_a13_proc_0 >= -2524
 c368: u_a6 - u_a13 - 1195 y_a13_proc_1 >= 0
 c369: u_a14 - u_a6 - 710 y_a6_proc_2 >= -1245
 c370: u_a14 - u_a6 - 1160 y_a6_proc_0 >= -2507
 c371: u_a14 - u_a6 - 571 y_a6_proc_1 >= -1245
 c372: u_a6 - u_a14 - 985 y_a14_proc_2 >= -1280
 c373: u_a6 - u_a14 - 1174 y_a14_proc_0 >= -2542
 c374: u_a6 - u_a14 - 1028 y_a14_proc_1 >= -1280
 c375: u_a8 - u_a7 - 917 y_a7_proc_2 >= -2542
 c376: u_a8 - u_a7 - 664 y_a7_proc_0 >= -1280
 c377: u_a8 - u_a7 - 966 y_a7_proc_1 >= -1280
 c378: u_a7 - u_a8 - 712 y_a8_proc_2 >= -2507
 c379: u_a7 - u_a8 - 810 y_a8_proc_0 >= -1245
 c380: u_a7 - u_a8 - 718 y_a8_proc_1 >= -1245
 c381: u_a9 - u_a7 - 917 y_a7_proc_2 >= -2507
 c382: u_a9 - u_a7 - 664 y_a7_proc_0 >= -1245
 c383: u_a9 - u_a7 - 966 y_a7_proc_1 >= -1245
 c384: u_a7 - u_a9 - 921 y_a9_proc_2 >= -2542
 c385: u_a7 - u_a9 - 738 y_a9_proc_0 >= -1280
 c386: u_a7 - u_a9 - 1122 y_a9_proc_1 >= -1280
 c387: u_a10 - u_a7 - 917 y_a7_proc_2 >= -1280
 c388: u_a10 - u_a7 - 664 y_a7_proc_0 >= -2542
 c389: u_a10 - u_a7 - 966 y_a7_proc_1 >= -1280
 c390: u_a7 - u_a10 - 1006 y_a10_proc_2 >= -1245
 c391: u_a7 - u_a10 - 1254 y_a10_proc_0 >= -2507
 c392: u_a7 - u_a10 - 1142 y_a10_proc_1 >= -1245
 c393: u_a11 - u_a7 - 917 y_a7_proc_2 >= -2542
 c394: u_a11 - u_a7 - 664 y_a7_proc_0 >= -1280
 c395: u_a11 - u_a7 - 966 y_a7_proc_1 >= -1280
 c396: u_a7 - u_a11 - 915 y_a11_proc_2 >= -2507
 c397: u_a7 - u_a11 - 728 y_a11_proc_0 >= -1245
 c398: u_a7 - u_a11 - 1010 y_a11_proc_1 >= -1245
 c399: u_a12 - u_a7 - 966 y_a7_proc_1 >= -1
 c400: u_a7 - u_a12 - 1173 y_a12_proc_1 >= 0
 c401: u_a13 - u_a7 - 917 y_a7_proc_2 >= -2525
 c402: u_a13 - u_a7 - 664 y_a7_proc_0 >= -2525
 c403: u_a13 - u_a7 - 966 y_a7_proc_1 >= -1
 c404: u_a7 - u_a13 - 967 y_a13_proc_2 >= -2524
 c405: u_a7 - u_a13 - 1262 y_a13_proc_0 >= -2524
 c406: u_a7 - u_a13 - 1195 y_a13_proc_1 >= 0
 c407: u_a14 - u_a7 - 917 y_a7_proc_2 >= -1280
 c408: u_a14 - u_a7 - 664 y_a7_proc_0 >= -2542
 c409: u_a14 - u_a7 - 966 y_a7_proc_1 >= -1280
 c410: u_a7 - u_a14 - 985 y_a14_proc_2 >= -1245
 c411: u_a7 - u_a14 - 1174 y_a14_proc_0 >= -2507
 c412: u_a7 - u_a14 - 1028 y_a14_proc_1 >= -1245
 c413: u_a9 - u_a8 - 712 y_a8_proc_2 >= -2524
 c414: u_a9 - u_a8 - 810 y_a8_proc_0 >= 0
 c415: u_a9 - u_a8 - 718 y_a8_proc_1 >= -2524
 c416: u_a8 - u_a9 - 921 y_a9_proc_2 >= -2525
 c417: u_a8 - u_a9 - 738 y_a9_proc_0 >= -1
 c418: u_a8 - u_a9 - 1122 y_a9_proc_1 >= -2525
 c419: u_a10 - u_a8 - 712 y_a8_proc_2 >= -1280
 c420: u_a10 - u_a8 - 810 y_a8_proc_0 >= -1280
 c421: u_a10 - u_a8 - 718 y_a8_proc_1 >= -2542
 c422: u_a8 - u_a10 - 1006 y_a10_proc_2 >= -1245
 c423: u_a8 - u_a10 - 1254 y_a10_proc_0 >= -1245
 c424: u_a8 - u_a10 - 1142 y_a10_proc_1 >= -2507
 c425: u_a11 - u_a8 - 712 y_a8_proc_2 >= -2525
 c426: u_a11 - u_a8 - 810 y_a8_proc_0 >= -1
 c427: u_a11 - u_a8 - 718 y_a8_proc_1 >= -2525
 c428: u_a8 - u_a11 - 915 y_a11_proc_2 >= -2524
 c429: u_a8 - u_a11 - 728 y_a11_proc_0 >= 0
 c430: u_a8 - u_a11 - 1010 y_a11_proc_1 >= -2524
 c431: u_a12 - u_a8 - 718 y_a8_proc_1 >= -1280
 c432: u_a8 - u_a12 - 1173 y_a12_proc_1 >= -1245
 c433: u_a13 - u_a8 - 712 y_a8_proc_2 >= -2542
 c434: u_a13 - u_a8 - 810 y_a8_proc_0 >= -1280
 c435: u_a13 - u_a8 - 718 y_a8_proc_1 >= -1280
 c436: u_a8 - u_a13 - 967 y_a13_proc_2 >= -2507
 c437: u_a8 - u_a13 - 1262 y_a13_proc_0 >= -1245
 c438: u_a8 - u_a13 - 1195 y_a13_proc_1 >= -1245
 c439: u_a14 - u_a8 - 712 y_a8_proc_2 >= -1280
 c440: u_a14 - u_a8 - 810 y_a8_proc_0 >= -1280
 c441: u_a14 - u_a8 - 718 y_a8_proc_1 >= -2542
 c442: u_a8 - u_a14 - 985 y_a14_proc_2 >= -1245
 c443: u_a8 - u_a14 - 1174 y_a14_proc_0 >= -1245
 c444: u_a8 - u_a14 - 1028 y_a14_proc_1 >= -2507
 c445: u_a10 - u_a9 - 921 y_a9_proc_2 >= -1280
 c446: u_a10 - u_a9 - 738 y_a9_proc_0 >= -1280
 c447: u_a10 - u_a9 - 1122 y_a9_proc_1 >= -2542
 c448: u_a9 - u_a10 - 1006 y_a10_proc_2 >= -1245
 c449: u_a9 - u_a10 - 1254 y_a10_proc_0 >= -1245
 c450: u_a9 - u_a10 - 1142 y_a10_proc_1 >= -2507
 c451: u_a11 - u_a9 - 921 y_a9_proc_2 >= -2525
 c452: u_a11 - u_a9 - 738 y_a9_proc_0 >= -1
 c453: u_a11 - u_a9 - 1122 y_a9_proc_1 >= -2525
 c454: u_a9 - u_a11 - 915 y_a11_proc_2 >= -2524
 c455: u_a9 - u_a11 - 728 y_a11_proc_0 >= 0
 c456: u_a9 - u_a11 - 1010 y_a11_proc_1 >= -2524
 c457: u_a12 - u_a9 - 1122 y_a9_proc_1 >= -1245
 c458: u_a9 - u_a12 - 1173 y_a12_proc_1 >= -1280
 c459: u_a13 - u_a9 - 921 y_a9_proc_2 >= -2507
 c460: u_a13 - u_a9 - 738 y_a9_proc_0 >= -1245
 c461: u_a13 - u_a9 - 1122 y_a9_proc_1 >= -1245
 c462: u_a9 - u_a13 - 967 y_a13_proc_2 >= -2542
 c463: u_a9 - u_a13 - 1262 y_a13_proc_0 >= -1280
 c464: u_a9 - u_a13 - 1195 y_a13_proc_1 >= -1280
 c465: u_a14 - u_a9 - 921 y_a9_proc_2 >= -1245
 c466: u_a14 - u_a9 - 738 y_a9_proc_0 >= -1245
 c467: u_a14 - u_a9 - 1122 y_a9_proc_1 >= -2507
 c468: u_a9 - u_a14 - 985 y_a14_proc_2 >= -1280
 c469: u_a9 - u_a14 - 1174 y_a14_proc_0 >= -1280
 c470: u_a9 - u_a14 - 1028 y_a14_proc_1 >= -2542
 c471: u_a11 - u_a10 - 1006 y_a10_proc_2 >= -1280
 c472: u_a11 - u_a10 - 1254 y_a10_proc_0 >= -1280
 c473: u_a11 - u_a10 - 1142 y_a10_proc_1 >= -2542
 c474: u_a10 - u_a11 - 915 y_a11_proc_2 >= -1245
 c475: u_a10 - u_a11 - 728 y_a11_proc_0 >= -1245
 c476: u_a10 - u_a11 - 1010 y_a11_proc_1 >= -2507
 c477: u_a12 - u_a10 - 1142 y_a10_proc_1 >= -1280
 c478: u_a10 - u_a12 - 1173 y_a12_proc_1 >= -1245
 c479: u_a13 - u_a10 - 1006 y_a10_proc_2 >= -1280
 c480: u_a13 - u_a10 - 1254 y_a10_proc_0 >= -2542
 c481: u_a13 - u_a10 - 1142 y_a10_proc_1 >= -1280
 c482: u_a10 - u_a13 - 967 y_a13_proc_2 >= -1245
 c483: u_a10 - u_a13 - 1262 y_a13_proc_0 >= -2507
 c484: u_a10 - u_a13 - 1195 y_a13_proc_1 >= -1245
 c485: u_a14 - u_a10 - 1006 y_a10_proc_2 >= -1
 c486: u_a14 - u_a10 - 1254 y_a10_proc_0 >= -2525
 c487: u_a14 - u_a10 - 1142 y_a10_proc_1 >= -2525
 c488: u_a10 - u_a14 - 985 y_a14_proc_2 >= 0
 c489: u_a10 - u_a14 - 1174 y_a14_proc_0 >= -2524
 c490: u_a10 - u_a14 - 1028 y_a14_proc_1 >= -2524
 c491: u_a12 - u_a11 - 1010 y_a11_proc_1 >= -1280
 c492: u_a11 - u_a12 - 1173 y_a12_proc_1 >= -1245
 c493: u_a13 - u_a11 - 915 y_a11_proc_2 >= -2542
 c494: u_a13 - u_a11 - 728 y_a11_proc_0 >= -1280
 c495: u_a13 - u_a11 - 1010 y_a11_proc_1 >= -1280
 c496: u_a11 - u_a13 - 967 y_a13_proc_2 >= -2507
 c497: u_a11 - u_a13 - 1262 y_a13_proc_0 >= -1245
 c498: u_a11 - u_a13 - 1195 y_a13_proc_1 >= -1245
 c499: u_a14 - u_a11 - 915 y_a11_proc_2 >= -1280
 c500: u_a14 - u_a11 - 728 y_a11_proc_0 >= -1280
 c501: u_a14 - u_a11 - 1010 y_a11_proc_1 >= -2542
 c502: u_a11 - u_a14 - 985 y_a14_proc_2 >= -1245
 c503: u_a11 - u_a14 - 1174 y_a14_proc_0 >= -1245
 c504: u_a11 - u_a14 - 1028 y_a14_proc_1 >= -2507
 c505: u_a13 - u_a12 - 1173 y_a12_proc_1 >= -1
 c506: u_a12 - u_a13 - 1195 y_a13_proc_1 >= 0
 c507: u_a14 - u_a12 - 1173 y_a12_proc_1 >= -1280
 c508: u_a12 - u_a14 - 1028 y_a14_proc_1 >= -1245
 c509: u_a14 - u_a13 - 967 y_a13_proc_2 >= -1280
 c510: u_a14 - u_a13 - 1262 y_a13_proc_0 >= -2542
 c511: u_a14 - u_a13 - 1195 y_a13_proc_1 >= -1280
 c512: u_a13 - u_a14 - 985 y_a14_proc_2 >= -1245
 c513: u_a13 - u_a14 - 1174 y_a14_proc_0 >= -2507
 c514: u_a13 - u_a14 - 1028 y_a14_proc_1 >= -1245

Bounds
End
